InboundTrucks  = 12;
OutboundTrucks = 8;
InboundDoors   = 2;
OutboundDoors  = 1;
ReleaseTime    = [32,13,19,4,23,14,29,10,6,19,28,15];
UnloadTime     = [22,6,8,5,5,24,12,25,9,11,20,10];
LoadTime       = [3,5,5,10,2,10,9,7];
TransferTime   = [| 0,0,0,0,0,0,0,0 | 0,2,4,0,0,7,7,1 | 0,0,0,0,1,0,0,0 | 0,0,0,5,0,0,5,0 | 0,6,0,0,0,0,0,0 | 4,0,0,3,0,1,0,8 | 6,0,0,0,3,0,0,0 | 0,0,0,0,0,0,0,4 | 0,3,0,0,0,0,1,0 | 3,0,0,0,0,1,0,0 | 0,0,0,0,0,0,0,5 | 0,0,0,2,0,0,0,0 |];
